NAME : P-n55-k7.411580.tour
COMMENT : Length = 411580
COMMENT : Found by LKH [Keld Helsgaun] Sun Dec 17 22:36:38 2017
TYPE : TOUR
DIMENSION : 61
TOUR_SECTION
1
27
13
41
10
40
11
32
61
7
34
2
44
43
42
24
50
25
60
5
46
30
6
16
21
38
37
58
8
36
9
20
15
54
12
39
56
18
52
17
4
45
33
51
19
26
59
3
31
49
48
22
29
23
57
35
47
53
28
14
55
-1
EOF
